data/results/2026_03_24_16_56_48_set_vm-3-t3_vm-3-t3_s009_g002_max.sol
# Objective value = 401
c_n0n2n5n10n13n16n17 7
c_n0n5n10n11n12n15 6
c_n5n8n11 2
c_n2n5n10n13n16n17 5
c_n0n5n10n13n16n17 6
c_n0n2n10n13n16n17 5
c_n0n2n5n13n16n17 6
c_n0n2n5n10n16n17 5
c_n0n2n5n10n13n17 5
c_n0n2n5n10n13n16 5
c_n5n10n11n12n15 5
c_n0n10n11n12n15 4
c_n0n5n11n12n15 4
c_n0n5n10n12n15 5
c_n0n5n10n11n15 4
c_n0n5n10n11n12 4
c_n5n10n13n16n17 4
c_n2n10n13n16n17 4
c_n2n5n13n16n17 4
c_n2n5n10n16n17 3
c_n2n5n10n13n17 4
c_n2n5n10n13n16 3
c_n0n10n13n16n17 4
c_n0n5n13n16n17 5
c_n0n5n10n16n17 5
c_n0n5n10n13n17 4
c_n0n5n10n13n16 4
c_n0n2n13n16n17 5
c_n0n2n10n16n17 3
c_n0n2n10n13n17 3
c_n0n2n10n13n16 3
c_n0n2n5n16n17 4
c_n0n2n5n13n17 4
c_n0n2n5n13n16 4
c_n0n2n5n10n17 3
c_n0n2n5n10n16 4
c_n0n2n5n10n13 4
c_n10n11n12n15 4
c_n5n11n12n15 3
c_n5n10n12n15 4
c_n5n10n11n15 3
c_n5n10n11n12 3
c_n0n11n12n15 3
c_n0n10n12n15 3
c_n0n10n11n15 2
c_n0n10n11n12 2
c_n0n5n12n15 3
c_n0n5n11n15 3
c_n0n5n11n12 2
c_n0n5n10n15 3
c_n0n5n10n12 4
c_n0n5n10n11 3
c_n10n13n16n17 3
c_n5n13n16n17 3
c_n5n10n16n17 3
c_n5n10n13n17 3
c_n5n10n13n16 2
c_n2n13n16n17 4
c_n2n10n16n17 2
c_n2n10n13n17 3
c_n2n10n13n16 2
c_n2n5n16n17 2
c_n2n5n13n17 3
c_n2n5n13n16 2
c_n2n5n10n17 2
c_n2n5n10n16 2
c_n2n5n10n13 3
c_n0n13n16n17 4
c_n0n10n16n17 3
c_n0n10n13n17 2
c_n0n10n13n16 2
c_n0n5n16n17 4
c_n0n5n13n17 3
c_n0n5n13n16 3
c_n0n5n10n17 3
c_n0n5n10n16 4
c_n0n5n10n13 3
c_n0n2n16n17 3
c_n0n2n13n17 3
c_n0n2n13n16 3
c_n0n2n10n17 1
c_n0n2n10n16 2
c_n0n2n10n13 2
c_n0n2n5n17 2
c_n0n2n5n16 3
c_n0n2n5n13 3
c_n0n2n5n10 3
c_n11n12n15 3
c_n10n12n15 3
c_n10n11n15 2
c_n10n11n12 2
c_n5n12n15 2
c_n5n11n15 2
c_n5n11n12 1
c_n5n10n15 2
c_n5n10n12 3
c_n5n10n11 2
c_n0n12n15 2
c_n0n11n15 2
c_n0n11n12 1
c_n0n10n15 1
c_n0n10n12 2
c_n0n10n11 1
c_n0n5n15 2
c_n0n5n12 2
c_n0n5n11 2
c_n0n5n10 3
c_n13n16n17 3
c_n10n16n17 2
c_n10n13n17 2
c_n10n13n16 1
c_n5n16n17 2
c_n5n13n17 2
c_n5n13n16 1
c_n5n10n17 2
c_n5n10n16 2
c_n5n10n13 2
c_n2n16n17 2
c_n2n13n17 3
c_n2n13n16 2
c_n2n10n17 1
c_n2n10n16 1
c_n2n10n13 2
c_n2n5n17 1
c_n2n5n16 1
c_n2n5n13 2
c_n2n5n10 2
c_n0n16n17 3
c_n0n13n17 2
c_n0n13n16 2
c_n0n10n17 1
c_n0n10n16 2
c_n0n10n13 1
c_n0n5n17 2
c_n0n5n16 3
c_n0n5n13 2
c_n0n2n17 1
c_n0n2n16 2
c_n0n2n13 2
c_n0n2n10 1
c_n0n2n5 2
y_n0n1 0
y_n1n2 1
y_n0n2 1
y_n1n3 0
y_n0n3 0
y_n1n4 1
y_n0n4 1
y_n1n5 1
y_n0n5 0
y_n1n6 1
y_n0n6 1
y_n1n7 1
y_n0n7 1
y_n1n8 1
y_n0n8 0
y_n1n9 1
y_n0n9 1
y_n1n10 1
y_n0n10 0
y_n1n11 1
y_n0n11 0
y_n1n12 1
y_n0n12 0
y_n1n13 1
y_n0n13 1
y_n1n14 1
y_n0n14 1
y_n1n15 1
y_n0n15 0
y_n1n16 1
y_n0n16 1
y_n1n17 1
y_n0n17 1
y_n1n18 1
y_n0n18 1
y_n2n3 0
y_n2n4 1
y_n2n5 0
y_n2n6 1
y_n2n7 1
y_n2n8 0
y_n2n9 1
y_n2n10 0
y_n2n11 0
y_n2n12 0
y_n2n13 0
y_n2n14 1
y_n2n15 0
y_n2n16 0
y_n2n17 0
y_n2n18 1
y_n3n4 1
y_n3n5 1
y_n3n6 1
y_n3n7 1
y_n3n8 1
y_n3n9 1
y_n3n10 1
y_n3n11 1
y_n3n12 1
y_n3n13 1
y_n3n14 1
y_n3n15 1
y_n3n16 1
y_n3n17 1
y_n3n18 1
y_n4n5 0
y_n4n6 1
y_n4n7 1
y_n4n8 0
y_n4n9 1
y_n4n10 0
y_n4n11 0
y_n4n12 0
y_n4n13 0
y_n4n14 1
y_n4n15 0
y_n4n16 0
y_n4n17 0
y_n4n18 1
y_n5n6 1
y_n5n7 1
y_n5n8 0
y_n5n9 1
y_n5n10 0
y_n5n11 0
y_n5n12 0
y_n5n13 1
y_n5n14 1
y_n5n15 0
y_n5n16 1
y_n5n17 1
y_n5n18 1
y_n6n7 1
y_n6n8 0
y_n6n9 1
y_n6n10 0
y_n6n11 0
y_n6n12 0
y_n6n13 0
y_n6n14 0
y_n6n15 0
y_n6n16 0
y_n6n17 0
y_n6n18 0
y_n7n8 0
y_n7n9 0
y_n7n10 0
y_n7n11 0
y_n7n12 0
y_n7n13 0
y_n7n14 0
y_n7n15 0
y_n7n16 0
y_n7n17 0
y_n7n18 0
y_n8n9 1
y_n8n10 1
y_n8n11 1
y_n8n12 1
y_n8n13 1
y_n8n14 1
y_n8n15 1
y_n8n16 1
y_n8n17 1
y_n8n18 1
y_n9n10 0
y_n9n11 0
y_n9n12 0
y_n9n13 0
y_n9n14 0
y_n9n15 0
y_n9n16 0
y_n9n17 0
y_n9n18 0
y_n10n11 0
y_n10n12 0
y_n10n13 1
y_n10n14 1
y_n10n15 0
y_n10n16 1
y_n10n17 1
y_n10n18 1
y_n11n12 1
y_n11n13 1
y_n11n14 1
y_n11n15 1
y_n11n16 1
y_n11n17 1
y_n11n18 1
y_n12n13 1
y_n12n14 1
y_n12n15 0
y_n12n16 1
y_n12n17 1
y_n12n18 1
y_n13n14 1
y_n13n15 0
y_n13n16 0
y_n13n17 0
y_n13n18 1
y_n14n15 0
y_n14n16 0
y_n14n17 0
y_n14n18 1
y_n15n16 1
y_n15n17 1
y_n15n18 1
y_n16n17 1
y_n16n18 1
y_n17n18 1
pos_n0 8
pos_n1 1
pos_n2 12
pos_n3 0
pos_n4 13
pos_n5 7
pos_n6 16
pos_n7 18
pos_n8 2
pos_n9 17
pos_n10 6
pos_n11 3
pos_n12 5
pos_n13 11
pos_n14 14
pos_n15 4
pos_n16 9
pos_n17 10
pos_n18 15
z_n10n16 0
z_n13n16 0
z_n2n16 0
z_n16n17 1
z_n5n16 0
z_n11n16 0
z_n15n16 0
z_n12n16 0
z_n10n13 0
z_n2n10 0
z_n10n17 0
z_n5n10 1
z_n10n11 0
z_n10n15 0
z_n10n12 1
z_n2n13 1
z_n13n17 1
z_n5n13 0
z_n11n13 0
z_n13n15 0
z_n12n13 0
z_n2n17 0
z_n2n5 0
z_n2n11 0
z_n2n15 0
z_n2n12 0
z_n5n17 0
z_n11n17 0
z_n15n17 0
z_n12n17 0
z_n5n11 0
z_n5n15 0
z_n5n12 0
z_n11n15 1
z_n11n12 0
z_n12n15 1
z_n3n11 0
z_n0n16 1
z_n0n10 0
z_n0n13 0
z_n0n17 0
z_n0n5 1
z_n1n6 0
z_n6n9 0
z_n1n9 0
z_n8n16 0
z_n8n10 0
z_n8n13 0
z_n0n2 0
z_n2n8 0
z_n8n17 0
z_n0n11 0
z_n0n15 0
z_n0n12 0
z_n0n8 0
z_n8n11 1
z_n8n15 0
z_n8n12 0
z_n3n14 0
z_n5n8 0
z_n1n5 0
z_n1n15 0
z_n1n12 0
z_n0n1 0
z_n1n10 0
z_n1n8 0
z_n5n7 0
z_n7n11 0
z_n7n15 0
z_n0n7 0
z_n7n10 0
z_n4n16 0
z_n4n10 0
z_n2n4 0
z_n4n17 0
z_n0n4 0
z_n4n5 0
z_n9n18 0
